# Move camera to a nice position
#/camera position 19.91 26.6 66
#/camera target 20 20 10

# Set atom size and color
#/atom 1 2.0 #ff0000

units lj
atom_style atomic

read_data state.data

# Choose LJ with 2.5sigma cutoff
pair_style lj/cut 2.5
pair_coeff * * 1.0 1.0 2.5
neigh_modify every 1 delay 0 check yes


thermo 100
thermo_style custom step temp press ke pe etotal cpuremain

fix nvt all nvt temp 0.1 0.1 0.2
run 1
