# Tell Atomify where initial camera position should be
#/camera position 30 157 20
#/camera viewcenter 30 30 20
# Information about atoms for coloring and bonds
#/atom 1 silicon
#/atom 2 oxygen
#/bond 1 2 2.6

units metal
atom_style	atomic

read_data zeolite_zsm5.data
replicate 3 3 3

pair_style	vashishta
pair_coeff	* * SiO2.vashishta Si O
neigh_modify every 1 delay 0 check yes

mass 1 28.08
mass 2 15.9994

velocity all create 300 376847 loop geom

timestep 0.002

fix nvt all nvt temp 300 300 1.0
run 1000