# Tell Atomify where initial camera position should be
#/camera position 30 50 90
#/camera target 30 30 30
# Information about atoms for coloring and bonds
#/atom 1 silicon
#/atom 2 oxygen
#/bond 1 2 2.6

variable porosity equal 0.75

units metal
boundary p p p
atom_style atomic
read_data betacristobalite.data
replicate 20 20 20

pair_style vashishta/table 10000 0.5
pair_coeff	* * SiO2.vashishta Si O
neigh_modify every 1 delay 0 check yes

mass 1 28.08
mass 2 15.9994

velocity all create 4500 376847 loop geom

fix nvt all nvt temp 4500 4500 0.1
thermo_style custom step temp etotal density vol
thermo 100

write_data initial.data

timestep 0.002
run 5000

unfix nvt
fix nvt all nvt temp 4500 500 0.1
variable scaleFactor equal "exp(-1/3*ln(1 - v_porosity))"
fix deform all deform 1 x scale ${scaleFactor} y scale ${scaleFactor} z scale ${scaleFactor}
run 20000

unfix deform
unfix nvt
fix nvt all nvt temp 500 500 0.2
run 20000
write_data final.data