    pair_coeff 19 19 lj/charmm/coul/long 0.0157 2.47135304412   # Veenstra et al JCC,8,(1992),963
    pair_coeff 20 20 lj/charmm/coul/long 0.0157 2.29317330049   # Veenstra et al JCC,8,(1992),963
    pair_coeff 21 21 lj/charmm/coul/long 0.0157 2.11499355687   # Veenstra et al JCC,8,(1992),963
    pair_coeff 22 22 lj/charmm/coul/long 0.0150 2.51055258772   # Spellmeyer, one electrowithdr. neighbor
    pair_coeff 23 23 lj/charmm/coul/long 0.0150 2.42146271591   # Spellmeyer, two electrowithdr. neighbor
    pair_coeff 24 24 lj/charmm/coul/long 0.0150 2.59964245953   # Spellmeyer
    pair_coeff 25 25 lj/charmm/coul/long 0.0157 2.64953278775   # OPLS
    pair_coeff 26 26 lj/charmm/coul/long 0.0157 1.06907846177   # !Ferguson base pair geom.
    pair_coeff 27 27 lj/charmm/coul/long 0.0000 0.0   # OPLS Jorgensen, JACS,110,(1988),1657
    pair_coeff 28 28 lj/charmm/coul/long 0.0157 1.06907846177   # same to hs (be careful !)
    pair_coeff 29 29 lj/charmm/coul/long 0.0157 1.06907846177   # W. Cornell CH3SH --> CH3OH FEP
    pair_coeff 30 30 lj/charmm/coul/long 0.0000 0.0   # OPLS Jorgensen, JACS,110,(1988),1657
    pair_coeff 31 31 lj/charmm/coul/long 0.0157 1.95997717991   # Veenstra et al JCC,8,(1992),963
    pair_coeff 49 49 lj/charmm/coul/long 0.2100 2.95992190115   # OPLS
    pair_coeff 50 50 lj/charmm/coul/long 0.2104 3.06647338784   # OPLS
    pair_coeff 51 51 lj/charmm/coul/long 0.1700 3.00001234347   # OPLS ether
    pair_coeff 52 52 lj/charmm/coul/long 0.1520 3.15075240658   # TIP3P water model
    pair_coeff 1 1 lj/charmm/coul/long 0.0860 3.39966950842   # OPLS
    pair_coeff 2 2 lj/charmm/coul/long 0.2100 3.39966950842   # cp C DLM 11/2007 well depth from OPLS replacing 0.0860
    pair_coeff 3 3 lj/charmm/coul/long 0.0860 3.39966950842   # sp2 atom in the middle of C=CD-CD=C
    pair_coeff 4 4 lj/charmm/coul/long 0.1094 3.39966950842   # OPLS
    pair_coeff 5 5 lj/charmm/coul/long 0.0860 3.39966950842   # OPLS
    pair_coeff 8 8 lj/charmm/coul/long 0.0860 3.39966950842   # OPLS
    pair_coeff 9 9 lj/charmm/coul/long 0.0860 3.39966950842   # OPLS
    pair_coeff 10 10 lj/charmm/coul/long 0.0860 3.39966950842   # OPLS
    pair_coeff 11 11 lj/charmm/coul/long 0.0860 3.39966950842   # OPLS
    pair_coeff 12 12 lj/charmm/coul/long 0.2100 3.39966950842   # DLM 12/2007 as c1
    pair_coeff 13 13 lj/charmm/coul/long 0.2100 3.39966950842   # DLM 12/2007 as c1
    pair_coeff 6 6 lj/charmm/coul/long 0.0860 3.39966950842   # OPLS
    pair_coeff 7 7 lj/charmm/coul/long 0.0860 3.39966950842   # OPLS
    pair_coeff 16 16 lj/charmm/coul/long 0.0860 3.39966950842   # OPLS
    pair_coeff 17 17 lj/charmm/coul/long 0.0860 3.39966950842   # OPLS
    pair_coeff 14 14 lj/charmm/coul/long 0.0860 3.39966950842   # OPLS
    pair_coeff 15 15 lj/charmm/coul/long 0.0860 3.39966950842   # OPLS
    pair_coeff 18 18 lj/charmm/coul/long 0.0860 3.39966950842   # OPLS
    pair_coeff 36 36 lj/charmm/coul/long 0.1700 3.24999852378   # OPLS
    pair_coeff 37 37 lj/charmm/coul/long 0.1700 3.24999852378   # OPLS
    pair_coeff 38 38 lj/charmm/coul/long 0.1700 3.24999852378   # OPLS
    pair_coeff 39 39 lj/charmm/coul/long 0.1700 3.24999852378   # OPLS
    pair_coeff 40 40 lj/charmm/coul/long 0.1700 3.24999852378   # OPLS
    pair_coeff 41 41 lj/charmm/coul/long 0.1700 3.24999852378   # OPLS
    pair_coeff 42 42 lj/charmm/coul/long 0.1700 3.24999852378   # OPLS
    pair_coeff 43 43 lj/charmm/coul/long 0.1700 3.24999852378   # OPLS
    pair_coeff 44 44 lj/charmm/coul/long 0.1700 3.24999852378   # OPLS
    pair_coeff 45 45 lj/charmm/coul/long 0.1700 3.24999852378   # OPLS
    pair_coeff 46 46 lj/charmm/coul/long 0.1700 3.24999852378   # OPLS
    pair_coeff 47 47 lj/charmm/coul/long 0.1700 3.24999852378   # OPLS
    pair_coeff 48 48 lj/charmm/coul/long 0.1700 3.24999852378   # OPLS
    pair_coeff 64 64 lj/charmm/coul/long 0.2500 3.56359487256   # W. Cornell CH3SH and CH3SCH3 FEP's
    pair_coeff 65 65 lj/charmm/coul/long 0.2500 3.56359487256   # W. Cornell CH3SH and CH3SCH3 FEP's
    pair_coeff 66 66 lj/charmm/coul/long 0.2500 3.56359487256   # W. Cornell CH3SH and CH3SCH3 FEP's
    pair_coeff 67 67 lj/charmm/coul/long 0.2500 3.56359487256   # W. Cornell CH3SH and CH3SCH3 FEP's
    pair_coeff 70 70 lj/charmm/coul/long 0.2500 3.56359487256   # W. Cornell CH3SH and CH3SCH3 FEP's
    pair_coeff 71 71 lj/charmm/coul/long 0.2500 3.56359487256   # W. Cornell CH3SH and CH3SCH3 FEP's
    pair_coeff 68 68 lj/charmm/coul/long 0.2500 3.56359487256   # W. Cornell CH3SH and CH3SCH3 FEP's
    pair_coeff 69 69 lj/charmm/coul/long 0.2500 3.56359487256   # W. Cornell CH3SH and CH3SCH3 FEP's
    pair_coeff 53 53 lj/charmm/coul/long 0.2000 3.74177461619   # JCC,7,(1986),230;
    pair_coeff 54 54 lj/charmm/coul/long 0.2000 3.74177461619   # JCC,7,(1986),230;
    pair_coeff 55 55 lj/charmm/coul/long 0.2000 3.74177461619   # JCC,7,(1986),230;
    pair_coeff 56 56 lj/charmm/coul/long 0.2000 3.74177461619   # JCC,7,(1986),230;
    pair_coeff 57 57 lj/charmm/coul/long 0.2000 3.74177461619   # JCC,7,(1986),230;
    pair_coeff 58 58 lj/charmm/coul/long 0.2000 3.74177461619   # JCC,7,(1986),230;
    pair_coeff 59 59 lj/charmm/coul/long 0.2000 3.74177461619   # JCC,7,(1986),230;
    pair_coeff 60 60 lj/charmm/coul/long 0.2000 3.74177461619   # JCC,7,(1986),230;
    pair_coeff 61 61 lj/charmm/coul/long 0.2000 3.74177461619   # JCC,7,(1986),230;
    pair_coeff 62 62 lj/charmm/coul/long 0.2000 3.74177461619   # JCC,7,(1986),230;
    pair_coeff 63 63 lj/charmm/coul/long 0.2000 3.74177461619   # JCC,7,(1986),230;
    pair_coeff 32 32 lj/charmm/coul/long 0.061 3.11814551349   # Gough et al. JCC 13,(1992),963.
    pair_coeff 33 33 lj/charmm/coul/long 0.265 3.47094140587   # Fox, JPCB,102,8070,(98),flex.mdl CHCl3
    pair_coeff 34 34 lj/charmm/coul/long 0.420 3.59923082129   # Junmei, 2010
    pair_coeff 35 35 lj/charmm/coul/long 0.50 3.830864488   # Junmei, 2010
    bond_coeff 1 harmonic 553.0 0.9572   # TIP3P_Water 1
    bond_coeff 2 harmonic 553.0 1.5136   # TIP3P_Water 1
    bond_coeff 3 harmonic 123.2 2.5420   # SOURCE1 4 0.0000
    bond_coeff 4 harmonic 352.7 1.7870   # SOURCE2 4 0.0024
    bond_coeff 5 harmonic 278.7 1.8830   # SOURCE1 31 0.0000
    bond_coeff 6 harmonic 240.3 1.9460   # SOURCE2 2 0.0285
    bond_coeff 7 harmonic 229.5 1.9660   # SOURCE1 100 0.0000
    bond_coeff 8 harmonic 269.6 1.8970   # SOURCE1 127 0.0058
    bond_coeff 9 harmonic 277.6 1.8847   # SOURCE4 39 0.0068
    bond_coeff 10 harmonic 261.4 1.9100   # SOURCE1 8 0.0000
    bond_coeff 11 harmonic 142.4 2.6710   # SOURCE1 2 0.0245
    bond_coeff 12 harmonic 330.4 1.8600   # SOUECE3 1
    bond_coeff 13 harmonic 219.0 2.0380   # SOURCE3 5 0.1082
    bond_coeff 14 harmonic 320.2 1.8730   # SOURCE3 4 0.0046
    bond_coeff 15 harmonic 265.9 1.9520   # SOURCE3 2 0.0000
    bond_coeff 16 harmonic 282.4 1.9260   # SOURCE3 3 0.0013
    bond_coeff 17 harmonic 237.3 2.0020   # SOURCE3 7 0.2156
    bond_coeff 18 harmonic 270.9 1.9440   # SOURCE3 1 0.0000
    bond_coeff 19 harmonic 191.0 2.1010   # SOURCE3 1 0.0000
    bond_coeff 20 harmonic 278.9 1.8000   # SOUECE3 1
    bond_coeff 21 harmonic 237.2 1.8660   # SOURCE3 1 0.0000
    bond_coeff 22 harmonic 225.6 1.8870   # SOURCE3 2 0.0000
    bond_coeff 23 harmonic 174.3 2.2100   # SOURCE3 9 0.0510
    bond_coeff 24 harmonic 167.0 2.2310   # SOURCE3 3 0.0101
    bond_coeff 25 harmonic 188.8 2.1710   # SOUECE3 1
    bond_coeff 26 harmonic 179.3 2.1960   # SOURCE3 3 0.0099
    bond_coeff 27 harmonic 170.6 2.2200   # SOUECE3 1
    bond_coeff 28 harmonic 134.3 2.3410   # SOURCE3 1 0.0000
    bond_coeff 29 harmonic 172.7 2.2140   # SOURCE3 3 0.0443
    bond_coeff 30 harmonic 174.4 2.2090   # SOURCE3 1 0.0000
    bond_coeff 31 harmonic 176.6 2.2030   # SOURCE3 3 0.0035
    bond_coeff 32 harmonic 986.2 1.1810   # SOURCE1 265 0.0031
    bond_coeff 33 harmonic 625.0 1.3070   # SOURCE1 18 0.0000
    bond_coeff 34 harmonic 368.3 1.4700   # SOURCE1 215 0.0017
    bond_coeff 35 harmonic 404.1 1.4400   # SOUECE3 1
    bond_coeff 36 harmonic 607.4 1.3153   # SOURCE4 6 0.0086
    bond_coeff 37 harmonic 845.8 1.2220   # SOURCE3 22 0.0101
    bond_coeff 38 harmonic 845.8 1.2220   # SOURCE3 22 same_as_c1-cg
    bond_coeff 39 harmonic 419.7 1.6310   # SOURCE2 6 0.0050
    bond_coeff 40 harmonic 399.1 1.4440   # SOURCE1 38 0.0000
    bond_coeff 41 harmonic 469.4 1.2700   # SOURCE2 2 0.0085
    bond_coeff 42 harmonic 375.9 1.0660   # SOURCE3 63 0.0035
    bond_coeff 43 harmonic 385.6 1.0600   # SOUECE3 1
    bond_coeff 44 harmonic 318.8 1.9890   # SOURCE2 4 0.0032
    bond_coeff 45 harmonic 1014.5 1.1380   # SOURCE1 170 0.0055
    bond_coeff 46 harmonic 769.8 1.2100   # SOURCE3 5 0.0115
    bond_coeff 47 harmonic 409.8 1.3920   # SOURCE2 1 0.0000
    bond_coeff 48 harmonic 378.2 1.4170   # SOURCE3 3 0.0032
    bond_coeff 49 harmonic 503.0 1.3300   # SOUECE3 1
    bond_coeff 50 harmonic 452.0 1.3620   # SOURCE3 8 0.0034
    bond_coeff 51 harmonic 803.3 1.1986   # SOURCE4 10 0.0088
    bond_coeff 52 harmonic 803.3 1.1986   # SOURCE4 10 same_as_c1-ne
    bond_coeff 53 harmonic 485.0 1.3408   # SOURCE4 11 0.0037
    bond_coeff 54 harmonic 393.0 1.4050   # SOURCE3 3 0.0005
    bond_coeff 55 harmonic 777.0 1.1660   # SOURCE2 9 0.0052
    bond_coeff 56 harmonic 435.6 1.3260   # SOURCE3 1 0.0000
    bond_coeff 57 harmonic 437.1 1.3250   # SOURCE3 3 0.0148
    bond_coeff 58 harmonic 289.3 1.7700   # SOUECE3 1
    bond_coeff 59 harmonic 275.1 1.7900   # SOUECE3 1
    bond_coeff 60 harmonic 275.1 1.7900   # SOUECE3 1
    bond_coeff 61 harmonic 302.2 1.7530   # SOURCE3 2 0.0000
    bond_coeff 62 harmonic 410.0 1.5950   # SOURCE3 1 0.0000
    bond_coeff 63 harmonic 371.8 1.6300   # SOURCE1 14 0.0000
    bond_coeff 64 harmonic 272.9 1.7460   # SOURCE3 2 0.0000
    bond_coeff 65 harmonic 290.4 1.7220   # SOURCE3 2 0.0000
    bond_coeff 66 harmonic 324.5 1.6800   # SOUECE3 1
    bond_coeff 67 harmonic 325.4 1.6790   # SOURCE1 10 0.0000
    bond_coeff 68 harmonic 589.7 1.3240   # SOURCE1 974 0.0096
    bond_coeff 69 harmonic 328.3 1.5080   # SOURCE1 2536 0.0021
    bond_coeff 70 harmonic 357.2 1.4800   # SOUECE3 1
    bond_coeff 71 harmonic 522.6 1.3600   # SOURCE1 771 0.0185
    bond_coeff 72 harmonic 522.6 1.3600   # SOURCE1 771 0.0185
    bond_coeff 73 harmonic 560.5 1.3390   # SOURCE3 62 0.0128
    bond_coeff 74 harmonic 560.5 1.3390   # SOURCE3 62 same_as_c2-ce
    bond_coeff 75 harmonic 328.8 1.7220   # SOURCE1 163 0.0098
    bond_coeff 76 harmonic 573.9 1.3320   # SOURCE2 1 0.0000
    bond_coeff 77 harmonic 353.3 1.4836   # SOURCE4 26 0.0064
    bond_coeff 78 harmonic 331.7 1.5046   # SOURCE4 9 0.0053
    bond_coeff 79 harmonic 368.7 1.3400   # SOURCE1 34 0.0000
    bond_coeff 80 harmonic 348.6 1.0840   # SOURCE3 40 0.0058
    bond_coeff 81 harmonic 338.0 1.0915   # SOURCE4 42 0.0017
    bond_coeff 82 harmonic 344.3 1.0870   # SOURCE3 797 0.0046
    bond_coeff 83 harmonic 344.3 1.0870   # SOURCE3 789 0.0046
    bond_coeff 84 harmonic 350.1 1.0830   # SOURCE3 3 0.0008
    bond_coeff 85 harmonic 223.2 2.1530   # SOURCE3 2 0.0000
    bond_coeff 86 harmonic 546.0 1.3060   # SOURCE3 4 0.0161
    bond_coeff 87 harmonic 581.1 1.2880   # SOURCE1 103 0.0100
    bond_coeff 88 harmonic 486.3 1.3400   # SOUECE3 1
    bond_coeff 89 harmonic 390.5 1.4070   # SOURCE3 9 0.0124
    bond_coeff 90 harmonic 309.1 1.4820   # SOURCE3 5 0.0064
    bond_coeff 91 harmonic 411.1 1.3910   # SOURCE3 31 0.0289
    bond_coeff 92 harmonic 533.0 1.3130   # SOURCE1 99 0.0095
    bond_coeff 93 harmonic 533.0 1.3130   # SOURCE1 99 same_as_c2-nc
    bond_coeff 94 harmonic 597.7 1.2800   # SOURCE3 37 0.0110
    bond_coeff 95 harmonic 597.7 1.2800   # SOURCE3 37 same_as_c2-ne
    bond_coeff 96 harmonic 462.6 1.3550   # SOURCE3 38 0.0413
    bond_coeff 97 harmonic 345.6 1.4457   # SOURCE4 7 0.0087
    bond_coeff 98 harmonic 623.6 1.2244   # SOURCE4 15 0.0036
    bond_coeff 99 harmonic 425.4 1.3330   # SOURCE1 53 0.0000
    bond_coeff 100 harmonic 392.6 1.3570   # SOURCE1 315 0.0097
    bond_coeff 101 harmonic 375.9 1.6700   # SOURCE3 62 0.0147
    bond_coeff 102 harmonic 246.6 1.8340   # SOURCE3 5 0.0042
    bond_coeff 103 harmonic 254.0 1.8220   # SOUECE3 1
    bond_coeff 104 harmonic 228.2 1.8658   # SOURCE4 5 0.0025
    bond_coeff 105 harmonic 355.3 1.6910   # SOURCE3 52 0.0542
    bond_coeff 106 harmonic 355.3 1.6910   # SOURCE3 52 same_as_c2-pe
    bond_coeff 107 harmonic 393.1 1.6100   # SOURCE2 1 0.0000
    bond_coeff 108 harmonic 281.5 1.7340   # SOURCE3 4 0.0034
    bond_coeff 109 harmonic 263.2 1.7600   # SOUECE3 1
    bond_coeff 110 harmonic 263.2 1.7600   # SOUECE3 1
    bond_coeff 111 harmonic 252.0 1.7771   # SOURCE4 5 0.0037
    bond_coeff 112 harmonic 280.0 1.7360   # SOURCE1 209 0.0155
    bond_coeff 113 harmonic 303.1 1.5350   # SOURCE1 14664 0.0048
    bond_coeff 114 harmonic 323.5 1.5130   # SOURCE1 1813 0.0000
    bond_coeff 115 harmonic 337.3 1.4990   # SOURCE3 50 0.0096
    bond_coeff 116 harmonic 337.3 1.4990   # SOURCE3 50 0.0096
    bond_coeff 117 harmonic 331.3 1.5050   # SOURCE3 9 0.0024
    bond_coeff 118 harmonic 331.3 1.5050   # SOURCE3 9 same_as_c3-ce
    bond_coeff 119 harmonic 279.0 1.7860   # SOURCE1 267 0.0194
    bond_coeff 120 harmonic 359.4 1.4780   # SOURCE1 7 0.0000
    bond_coeff 121 harmonic 347.6 1.4890   # SOURCE1 11 0.0000
    bond_coeff 122 harmonic 322.5 1.5140   # SOURCE1 712 0.0045
    bond_coeff 123 harmonic 308.5 1.5290   # SOURCE1 376 0.0000
    bond_coeff 124 harmonic 363.8 1.3440   # SOURCE1 617 0.0281
    bond_coeff 125 harmonic 335.9 1.0930   # SOURCE3 2175 0.0082
    bond_coeff 126 harmonic 326.4 1.1000   # SOURCE3 66 0.0280
    bond_coeff 127 harmonic 333.4 1.0948   # SOURCE4 25 0.0026
    bond_coeff 128 harmonic 337.3 1.0920   # SOURCE3 2815 0.0059
    bond_coeff 129 harmonic 338.7 1.0910   # SOURCE3 146 0.0066
    bond_coeff 130 harmonic 219.1 2.1620   # SOURCE1 15 0.0000
    bond_coeff 131 harmonic 325.1 1.4700   # SOURCE3 0
    bond_coeff 132 harmonic 313.8 1.4770   # SOURCE1 129 0.0138
    bond_coeff 133 harmonic 330.6 1.4600   # SOURCE1 187 0.0079
    bond_coeff 134 harmonic 320.6 1.4700   # SOURCE1 1678 0.0017
    bond_coeff 135 harmonic 293.6 1.4990   # SOURCE1 1370 0.0000
    bond_coeff 136 harmonic 334.7 1.4560   # SOURCE3 23 0.0119
    bond_coeff 137 harmonic 334.7 1.4560   # SOURCE3 9 0.0109
    bond_coeff 138 harmonic 334.7 1.4560   # SOURCE3 9 same_as_c3-nc
    bond_coeff 139 harmonic 332.7 1.4580   # SOURCE3 27 0.0085
    bond_coeff 140 harmonic 265.4 1.5330   # SOURCE1 83 0.0212
    bond_coeff 141 harmonic 449.9 1.3165   # SOURCE4 8 0.0193
    bond_coeff 142 harmonic 314.1 1.4260   # SOURCE1 914 0.0129
    bond_coeff 143 harmonic 301.5 1.4390   # SOURCE1 3123 0.0126
    bond_coeff 144 harmonic 234.3 1.8550   # SOURCE3 9 0.0125
    bond_coeff 145 harmonic 240.6 1.8440   # SOURCE3 109 0.0107
    bond_coeff 146 harmonic 247.2 1.8330   # SOURCE3 29 0.0138
    bond_coeff 147 harmonic 259.7 1.8130   # SOURCE1 84 0.0000
    bond_coeff 148 harmonic 252.7 1.8240   # SOURCE3 28 0.0098
    bond_coeff 149 harmonic 259.7 1.8130   # SOURCE3 13 0.0163
    bond_coeff 150 harmonic 212.9 1.8450   # SOURCE3 4 0.0185
    bond_coeff 151 harmonic 233.8 1.8070   # SOURCE1 139 0.0023
    bond_coeff 152 harmonic 254.0 1.7740   # SOURCE1 118 0.0103
    bond_coeff 153 harmonic 225.3 1.8220   # SOURCE3 12 0.0051
    bond_coeff 154 harmonic 225.8 1.8210   # SOURCE1 358 0.0075
    bond_coeff 155 harmonic 232.6 1.8090   # SOURCE3 30 0.0067
    bond_coeff 156 harmonic 248.9 1.7820   # SOURCE3 31 0.0039
    bond_coeff 157 harmonic 478.4 1.3870   # SOURCE1 6228 0.0147
    bond_coeff 158 harmonic 411.7 1.4340   # SOURCE1 80 0.0000
    bond_coeff 159 harmonic 411.7 1.4340   # SOURCE1 80 0.0000
    bond_coeff 160 harmonic 366.0 1.4720   # SOURCE1 71 0.0030
    bond_coeff 161 harmonic 366.0 1.4720   # SOURCE1 71 0.0030
    bond_coeff 162 harmonic 406.6 1.4380   # SOURCE1 71 0.0045
    bond_coeff 163 harmonic 406.6 1.4380   # SOURCE1 71 0.0045
    bond_coeff 164 harmonic 322.8 1.7290   # SOURCE1 704 0.0095
    bond_coeff 165 harmonic 461.8 1.3980   # CORR 28
    bond_coeff 166 harmonic 461.8 1.3980   # CORR 28
    bond_coeff 167 harmonic 350.8 1.4860   # SOURCE1 98 0.0118
    bond_coeff 168 harmonic 323.0 1.5135   # SOURCE4 8 0.0043
    bond_coeff 169 harmonic 363.8 1.3440   # SOURCE1 205 0.0089
    bond_coeff 170 harmonic 342.9 1.0880   # SOURCE3 57 0.0026
    bond_coeff 171 harmonic 347.2 1.0850   # SOURCE3 15 0.0048
    bond_coeff 172 harmonic 344.3 1.0870   # SOURCE3 1496 0.0045
    bond_coeff 173 harmonic 252.4 2.0950   # SOURCE1 51 0.0000
    bond_coeff 174 harmonic 398.1 1.4000   # SOURCE3 0
    bond_coeff 175 harmonic 551.6 1.3030   # SOURCE4 7 0.0058
    bond_coeff 176 harmonic 372.3 1.4220   # SOURCE3 9 0.0098
    bond_coeff 177 harmonic 325.6 1.4650   # SOURCE1 23 0.0000
    bond_coeff 178 harmonic 470.3 1.3500   # SOURCE1 150 0.0103
    bond_coeff 179 harmonic 483.1 1.3420   # SOURCE3 104 0.0076
    bond_coeff 180 harmonic 492.9 1.3360   # SOURCE1 1826 0.0020
    bond_coeff 181 harmonic 492.9 1.3360   # SOURCE1 1826 0.0020
    bond_coeff 182 harmonic 361.8 1.4310   # SOURCE1 52 0.0000
    bond_coeff 183 harmonic 361.8 1.4310   # SOURCE1 52 0.0000
    bond_coeff 184 harmonic 449.0 1.3640   # SOURCE1 137 0.0085
    bond_coeff 185 harmonic 322.6 1.4680   # SOURCE1 556 0.0000
    bond_coeff 186 harmonic 610.0 1.2304   # SOURCE4 5 0.0026
    bond_coeff 187 harmonic 386.1 1.3620   # SOURCE1 551 0.0000
    bond_coeff 188 harmonic 372.4 1.3730   # SOURCE1 1092 0.0071
    bond_coeff 189 harmonic 243.0 1.8400   # SOUECE3 1
    bond_coeff 190 harmonic 252.7 1.8240   # SOURCE1 145 0.0187
    bond_coeff 191 harmonic 264.3 1.8060   # SOUECE3 1
    bond_coeff 192 harmonic 271.6 1.7950   # SOURCE1 571 0.0028
    bond_coeff 193 harmonic 249.6 1.8290   # SOURCE3 10 0.0042
    bond_coeff 194 harmonic 249.6 1.8290   # SOURCE3 10 0.0042
    bond_coeff 195 harmonic 252.1 1.8250   # SOURCE3 5 0.0168
    bond_coeff 196 harmonic 268.3 1.7999   # SOURCE4 5 0.0072
    bond_coeff 197 harmonic 277.9 1.7390   # SOURCE3 2 0.0000
    bond_coeff 198 harmonic 245.2 1.7880   # SOURCE1 51 0.0048
    bond_coeff 199 harmonic 263.9 1.7590   # SOURCE1 229 0.0036
    bond_coeff 200 harmonic 251.3 1.7783   # SOURCE4 12 0.0041
    bond_coeff 201 harmonic 256.6 1.7700   # SOURCE1 297 0.0041
    bond_coeff 202 harmonic 223.5 1.8252   # SOURCE4 24 0.0032
    bond_coeff 203 harmonic 247.7 1.7840   # SOURCE3 13 0.0094
    bond_coeff 204 harmonic 379.8 1.4600   # SOUECE3 1
    bond_coeff 205 harmonic 449.9 1.4060   # SOURCE3 2 0.0370
    bond_coeff 206 harmonic 290.1 1.5500   # SOURCE1 31 0.0100
    bond_coeff 207 harmonic 328.3 1.5080   # SOURCE1 2949 0.0060
    bond_coeff 208 harmonic 349.7 1.4870   # SOURCE1 480 0.0055
    bond_coeff 209 harmonic 377.4 1.4620   # SOURCE3 132 0.0210
    bond_coeff 210 harmonic 418.3 1.4290   # SOURCE1 740 0.0069
    bond_coeff 211 harmonic 504.0 1.3710   # SOURCE3 523 0.0217
    bond_coeff 212 harmonic 387.9 1.4532   # CORR 249
    bond_coeff 213 harmonic 511.3 1.3666   # CORR 70
    bond_coeff 214 harmonic 420.9 1.4270   # SOURCE1 560 0.0000
    bond_coeff 215 harmonic 420.9 1.4270   # SOURCE1 560 0.0000
    bond_coeff 216 harmonic 317.1 1.7359   # CORR 66
    bond_coeff 217 harmonic 366.6 1.4715   # CORR 24
    bond_coeff 218 harmonic 377.4 1.4620   # SOURCE3 132 0.0210
    bond_coeff 219 harmonic 363.8 1.4740   # SOURCE1 601 0.0105
    bond_coeff 220 harmonic 363.8 1.4740   # SOURCE1 601 0.0105
    bond_coeff 221 harmonic 368.6 1.3401   # SOURCE4 24 0.0034
    bond_coeff 222 harmonic 389.3 1.4520   # SOURCE3 2 0.0000
    bond_coeff 223 harmonic 389.3 1.4520   # SOURCE3 2 same_as_c-cg
    bond_coeff 224 harmonic 350.1 1.0830   # SOURCE3 599 0.0037
    bond_coeff 225 harmonic 356.0 1.0790   # SOURCE3 40 0.0051
    bond_coeff 226 harmonic 347.2 1.0850   # SOURCE3 740 0.0039
    bond_coeff 227 harmonic 293.5 1.7660   # SOURCE3 6 0.0250
    bond_coeff 228 harmonic 573.8 1.2917   # CORR 81
    bond_coeff 229 harmonic 426.0 1.3800   # SOURCE3 56 0.0109
    bond_coeff 230 harmonic 299.0 1.4930   # SOURCE4 7 0.0148
    bond_coeff 231 harmonic 438.8 1.3710   # SOURCE3 440 0.0144
    bond_coeff 232 harmonic 431.6 1.3760   # SOURCE1 88 0.0000
    bond_coeff 233 harmonic 494.6 1.3350   # SOURCE3 203 0.0239
    bond_coeff 234 harmonic 427.4 1.3790   # SOURCE4 30 0.0126
    bond_coeff 235 harmonic 565.4 1.2960   # CORR 23
    bond_coeff 236 harmonic 449.0 1.3640   # SOURCE3 6 0.0040
    bond_coeff 237 harmonic 367.4 1.4262   # SOURCE4 133 0.0061
    bond_coeff 238 harmonic 408.5 1.3451   # CORR 121
    bond_coeff 239 harmonic 376.1 1.3700   # SOURCE3 86 0.0192
    bond_coeff 240 harmonic 318.2 1.7330   # SOURCE3 84 0.0161
    bond_coeff 241 harmonic 257.9 1.7681   # SOURCE4 8 0.0027
    bond_coeff 242 harmonic 279.3 1.7370   # SOURCE3 52 0.0194
    bond_coeff 243 harmonic 231.3 1.8113   # SOURCE4 16 0.0050
    bond_coeff 244 harmonic 248.1 1.7834   # CORR 55
    bond_coeff 245 harmonic 441.4 1.4120   # SOURCE2 1 0.0000
    bond_coeff 246 harmonic 350.8 1.4860   # SOURCE1 105 0.0000
    bond_coeff 247 harmonic 308.5 1.5290   # SOURCE1 18 0.0000
    bond_coeff 248 harmonic 418.3 1.4290   # SOURCE1 740 0.0069
    bond_coeff 249 harmonic 511.3 1.3666   # CORR 70
    bond_coeff 250 harmonic 387.9 1.4532   # CORR 249
    bond_coeff 251 harmonic 420.9 1.4270   # SOURCE1 560 0.0000
    bond_coeff 252 harmonic 420.9 1.4270   # SOURCE1 560 0.0000
    bond_coeff 253 harmonic 317.1 1.7359   # CORR 66
    bond_coeff 254 harmonic 366.6 1.4715   # CORR 24
    bond_coeff 255 harmonic 330.9 1.5054   # SOURCE4 10 0.0008
    bond_coeff 256 harmonic 350.1 1.0830   # SOURCE3 599 0.0037
    bond_coeff 257 harmonic 356.0 1.0790   # SOURCE3 40 0.0051
    bond_coeff 258 harmonic 347.2 1.0850   # SOURCE3 740 0.0039
    bond_coeff 259 harmonic 573.8 1.2917   # CORR 81
    bond_coeff 260 harmonic 426.0 1.3800   # SOURCE3 56 0.0109
    bond_coeff 261 harmonic 438.8 1.3710   # SOURCE3 440 0.0144
    bond_coeff 262 harmonic 494.6 1.3350   # SOURCE3 203 0.0239
    bond_coeff 263 harmonic 431.6 1.3760   # SOURCE1 88 0.0000
    bond_coeff 264 harmonic 565.4 1.2960   # CORR 23
    bond_coeff 265 harmonic 449.0 1.3640   # SOURCE3 6 0.0040
    bond_coeff 266 harmonic 408.5 1.3451   # CORR 121
    bond_coeff 267 harmonic 376.1 1.3700   # SOURCE3 86 0.0192
    bond_coeff 268 harmonic 318.2 1.7330   # SOURCE3 84 same_as_cc-pd
    bond_coeff 269 harmonic 279.3 1.7370   # SOURCE3 52 0.0194
    bond_coeff 270 harmonic 248.1 1.7834   # CORR 55
    bond_coeff 271 harmonic 390.5 1.4510   # SOURCE1 66 0.0060
    bond_coeff 272 harmonic 562.4 1.3380   # SOURCE1 543 0.0045
    bond_coeff 273 harmonic 415.6 1.4310   # SOURCE1 22 0.0000
    bond_coeff 274 harmonic 415.6 1.4310   # SOURCE1 22 0.0000
    bond_coeff 275 harmonic 292.6 1.7671   # SOURCE4 24 0.0062
    bond_coeff 276 harmonic 337.0 1.4993   # SOURCE4 5 0.0066
    bond_coeff 277 harmonic 323.0 1.5135   # SOURCE4 17 0.0024
    bond_coeff 278 harmonic 337.4 1.0919   # CORR 144
    bond_coeff 279 harmonic 341.5 1.0890   # SOURCE3 55 0.0056
    bond_coeff 280 harmonic 536.1 1.3113   # CORR 13
    bond_coeff 281 harmonic 599.8 1.2790   # SOURCE1 75 0.0000
    bond_coeff 282 harmonic 368.9 1.4249   # CORR 136
    bond_coeff 283 harmonic 373.8 1.4207   # SOURCE4 5 0.0051
    bond_coeff 284 harmonic 381.8 1.4140   # SOURCE3 7 0.0103
    bond_coeff 285 harmonic 574.0 1.2916   # CORR 42
    bond_coeff 286 harmonic 412.3 1.3901   # CORR 168
    bond_coeff 287 harmonic 402.9 1.3493   # CORR 37
    bond_coeff 288 harmonic 372.8 1.3727   # CORR 45
    bond_coeff 289 harmonic 259.1 1.8140   # SOUECE3 1
    bond_coeff 290 harmonic 256.5 1.8180   # SOURCE3 8 0.0108
    bond_coeff 291 harmonic 254.6 1.8210   # SOURCE3 6 0.0046
    bond_coeff 292 harmonic 272.3 1.7940   # SOURCE3 5 0.0045
    bond_coeff 293 harmonic 324.5 1.6800   # SOUECE3 1
    bond_coeff 294 harmonic 243.6 1.7906   # SOURCE4 10 0.0064
    bond_coeff 295 harmonic 239.7 1.7970   # SOURCE3 5 0.0082
    bond_coeff 296 harmonic 248.9 1.7820   # SOURCE3 5 0.0114
    bond_coeff 297 harmonic 387.9 1.3250   # SOURCE2 6 0.0147
    bond_coeff 298 harmonic 390.5 1.4510   # SOURCE1 66 0.0060
    bond_coeff 299 harmonic 415.6 1.4310   # SOURCE1 22 0.0000
    bond_coeff 300 harmonic 415.6 1.4310   # SOURCE1 22 0.0000
    bond_coeff 301 harmonic 337.4 1.0919   # CORR 144
    bond_coeff 302 harmonic 341.5 1.0890   # SOURCE3 55 0.0056
    bond_coeff 303 harmonic 536.1 1.3113   # CORR 13
    bond_coeff 304 harmonic 599.8 1.2790   # SOURCE1 75 same_as_ce-n2
    bond_coeff 305 harmonic 368.9 1.4249   # CORR 136
    bond_coeff 306 harmonic 574.0 1.2916   # CORR 42
    bond_coeff 307 harmonic 381.8 1.4140   # SOURCE3 7 same_as_ce-ne
    bond_coeff 308 harmonic 412.3 1.3901   # CORR 168
    bond_coeff 309 harmonic 402.9 1.3493   # CORR 37
    bond_coeff 310 harmonic 372.8 1.3727   # CORR 45
    bond_coeff 311 harmonic 259.1 1.8140   # SOUECE3 1 same_as_ce-p2
    bond_coeff 312 harmonic 256.5 1.8180   # SOURCE3 8 same_as_ce-pe
    bond_coeff 313 harmonic 254.6 1.8210   # SOURCE3 6 same_as_ce-px
    bond_coeff 314 harmonic 272.3 1.7940   # SOURCE3 5 same_as_ce-py
    bond_coeff 315 harmonic 324.5 1.6800   # SOUECE3 1 same_as_ce-s
    bond_coeff 316 harmonic 239.7 1.7970   # SOURCE3 5 same_as_ce-sx
    bond_coeff 317 harmonic 248.9 1.7820   # SOURCE3 5 same_as_ce-sy
    bond_coeff 318 harmonic 494.2 1.3770   # SOURCE1 42 0.0000
    bond_coeff 319 harmonic 949.5 1.1910   # SOURCE1 80 0.0015
    bond_coeff 320 harmonic 994.7 1.1430   # SOURCE1 316 0.0018
    bond_coeff 321 harmonic 509.5 1.3262   # SOURCE4 17 0.0009
    bond_coeff 322 harmonic 429.8 1.6210   # SOURCE3 11 0.2008
    bond_coeff 323 harmonic 310.5 1.1123   # SOURCE4 125 0.0023
    bond_coeff 324 harmonic 319.4 1.1053   # SOURCE4 42 0.0028
    bond_coeff 325 harmonic 325.1 1.1010   # SOURCE3 53 0.0102
    bond_coeff 326 harmonic 494.2 1.3770   # SOURCE1 42 0.0000
    bond_coeff 327 harmonic 994.7 1.1430   # SOURCE1 316 0.0018
    bond_coeff 328 harmonic 509.5 1.3262   # SOURCE4 17 same_as_cg-ne
    bond_coeff 329 harmonic 429.8 1.6210   # SOURCE3 11 same_as_cg-pe
    bond_coeff 330 harmonic 198.9 2.2090   # SOURCE3 4 0.0365
    bond_coeff 331 harmonic 143.3 2.2670   # SOURCE1 2 0.0395
    bond_coeff 332 harmonic 301.8 1.7550   # SOURCE1 64 0.0000
    bond_coeff 333 harmonic 292.0 1.7680   # SOURCE2 2 0.0070
    bond_coeff 334 harmonic 298.6 1.6480   # SOURCE2 2 0.0500
    bond_coeff 335 harmonic 163.5 2.5500   # SOURCE1 6 0.0893
    bond_coeff 336 harmonic 431.6 1.6300   # SOUECE3 1
    bond_coeff 337 harmonic 263.4 1.8190   # SOURCE3 6 0.1020
    bond_coeff 338 harmonic 290.4 1.7800   # SOURCE4 5 0.0021
    bond_coeff 339 harmonic 344.2 1.7140   # SOURCE4 5 0.0005
    bond_coeff 340 harmonic 311.1 1.7530   # SOURCE3 4 0.0098
    bond_coeff 341 harmonic 253.2 1.8350   # SOURCE3 7 0.2083
    bond_coeff 342 harmonic 303.2 1.7630   # SOURCE3 1 0.0000
    bond_coeff 343 harmonic 250.1 1.8400   # SOURCE2 1 0.0000
    bond_coeff 344 harmonic 557.6 1.4830   # SOURCE3 4 0.0000
    bond_coeff 345 harmonic 309.7 1.6900   # SOURCE2 1 0.0000
    bond_coeff 346 harmonic 278.8 1.7300   # SOURCE3 4 0.0000
    bond_coeff 347 harmonic 217.5 2.0700   # SOURCE3 6 0.0108
    bond_coeff 348 harmonic 249.4 2.0080   # SOURCE1 111 0.0000
    bond_coeff 349 harmonic 249.4 2.0080   # SOURCE1 111 0.0000
    bond_coeff 350 harmonic 249.4 2.0080   # SOURCE1 111 0.0000
    bond_coeff 351 harmonic 255.6 1.9970   # SOURCE1 46 0.0000
    bond_coeff 352 harmonic 208.7 2.0720   # SOURCE1 6 0.0000
    bond_coeff 353 harmonic 172.7 2.1610   # SOURCE2 1 0.0000
    bond_coeff 354 harmonic 208.7 2.0720   # SOURCE1 6 0.0000
    bond_coeff 355 harmonic 208.7 2.0720   # SOURCE1 6 0.0000
    bond_coeff 356 harmonic 208.7 2.0720   # SOURCE1 6 0.0000
    bond_coeff 357 harmonic 208.7 2.0720   # SOURCE1 6 0.0000
    bond_coeff 358 harmonic 208.7 2.0720   # SOURCE1 6 0.0000
    bond_coeff 359 harmonic 208.7 2.0720   # SOURCE1 6 0.0000
    bond_coeff 360 harmonic 374.6 1.4200   # SOUECE3 1
    bond_coeff 361 harmonic 255.5 1.5460   # SOURCE3 4 0.0388
    bond_coeff 362 harmonic 478.2 1.3450   # SOURCE1 1235 0.0215
    bond_coeff 363 harmonic 412.1 1.3906   # CORR 124
    bond_coeff 364 harmonic 412.1 1.3906   # CORR 124
    bond_coeff 365 harmonic 408.2 1.3932   # CORR 52
    bond_coeff 366 harmonic 408.2 1.3932   # CORR 52
    bond_coeff 367 harmonic 260.1 1.5400   # SOUECE3 1
    bond_coeff 368 harmonic 648.0 1.2140   # SOURCE1 3682 0.0165
    bond_coeff 369 harmonic 466.4 1.3060   # SOURCE1 271 0.0041
    bond_coeff 370 harmonic 411.3 1.3430   # SOURCE1 1044 0.0171
    bond_coeff 371 harmonic 210.3 1.9000   # SOUECE3 1
    bond_coeff 372 harmonic 219.0 1.8830   # SOURCE3 6 0.0129
    bond_coeff 373 harmonic 220.6 1.8800   # SOUECE3 1
    bond_coeff 374 harmonic 219.8 1.8815   # SOURCE4 11 0.0078
    bond_coeff 375 harmonic 346.5 1.4900   # SOURCE1 242 0.0010
    bond_coeff 376 harmonic 419.3 1.4282   # SOURCE4 7 0.0034
    bond_coeff 377 harmonic 204.9 1.9110   # SOURCE3 3 0.0025
    bond_coeff 378 harmonic 204.9 1.9110   # SOURCE3 3 same_as_c-pe
    bond_coeff 379 harmonic 420.5 1.3840   # SOURCE4 7 0.0181
    bond_coeff 380 harmonic 486.7 1.3398   # SOURCE4 70 0.0062
    bond_coeff 381 harmonic 208.3 1.9040   # SOURCE3 1 0.0000
    bond_coeff 382 harmonic 227.6 1.8670   # SOURCE3 6 0.0199
    bond_coeff 383 harmonic 346.5 1.4900   # SOURCE1 242 0.0010
    bond_coeff 384 harmonic 328.9 1.6750   # SOURCE1 401 0.0128
    bond_coeff 385 harmonic 200.4 1.8700   # SOUECE3 1
    bond_coeff 386 harmonic 200.4 1.8700   # SOUECE3 1
    bond_coeff 387 harmonic 249.6 1.7810   # SOURCE3 6 0.0171
    bond_coeff 388 harmonic 261.9 1.7620   # SOURCE1 20 0.0000
    bond_coeff 389 harmonic 193.3 1.8850   # SOURCE3 5 0.0088
    bond_coeff 390 harmonic 202.8 1.8650   # SOURCE3 5 0.0085
    bond_coeff 391 harmonic 653.7 1.2940   # SOURCE1 10 0.0000